p cnf 107 355
3 -1 0
3 2 0
1 -2 -3 0
-6 -4 0
-6 5 0
4 -5 6 0
-8 6 0
-8 -7 0
-6 7 8 0
10 -5 0
10 -9 0
5 9 -10 0
11 -8 0
11 -10 0
8 10 -11 0
-12 13 -14 0
12 -13 -14 0
-12 -13 14 0
12 13 14 0
-16 -14 0
-16 15 0
14 -15 16 0
-18 12 0
-18 -17 0
-12 17 18 0
-19 18 0
-19 -11 0
-18 11 19 0
-20 -19 0
-20 -10 0
19 10 20 0
-18 -20 -21 0
18 20 -21 0
-18 20 21 0
18 -20 21 0
22 -16 0
22 21 0
16 -21 -22 0
-11 22 -23 0
11 -22 -23 0
-11 -22 23 0
11 22 23 0
-25 -17 0
-25 7 0
17 -7 25 0
-24 25 -26 0
24 -25 -26 0
-24 -25 26 0
24 25 26 0
-11 5 -27 0
11 -5 -27 0
-11 -5 27 0
11 5 27 0
26 27 -28 0
-26 -27 -28 0
26 -27 28 0
-26 27 28 0
14 29 -30 0
-14 -29 -30 0
14 -29 30 0
-14 29 30 0
-31 -14 0
-31 30 0
14 -30 31 0
33 -32 0
33 -4 0
32 4 -33 0
31 -33 -34 0
-31 33 -34 0
31 33 34 0
-31 -33 34 0
32 10 -35 0
-32 -10 -35 0
32 -10 35 0
-32 10 35 0
36 -34 0
36 -35 0
34 35 -36 0
37 -28 0
37 -36 0
28 36 -37 0
-38 23 0
-38 -37 0
-23 37 38 0
40 -29 0
40 39 0
29 -39 -40 0
41 40 0
41 40 0
-40 -41 0
-42 -41 0
-42 -33 0
41 33 42 0
43 5 0
43 -42 0
-5 42 -43 0
-44 38 0
-44 -43 0
-38 43 44 0
45 -3 0
45 -44 0
3 44 -45 0
24 39 -46 0
-24 -39 -46 0
24 -39 46 0
-24 39 46 0
-19 36 -47 0
19 -36 -47 0
-19 -36 47 0
19 36 47 0
-46 -47 -48 0
46 47 -48 0
-46 47 48 0
46 -47 48 0
10 -14 -50 0
-10 14 -50 0
10 14 50 0
-10 -14 50 0
-9 50 -51 0
9 -50 -51 0
-9 -50 51 0
9 50 51 0
-52 51 0
-52 -42 0
-51 42 52 0
53 52 0
53 -26 0
-52 26 -53 0
-54 -49 0
-54 -53 0
49 53 54 0
55 48 0
55 -54 0
-48 54 -55 0
-56 4 0
-56 -24 0
-4 24 56 0
57 56 0
57 22 0
-56 -22 -57 0
-58 17 0
-58 -24 0
-17 24 58 0
59 58 0
59 -18 0
-58 18 -59 0
57 -59 -60 0
-57 59 -60 0
57 59 60 0
-57 -59 60 0
61 55 0
61 -60 0
-55 60 -61 0
-62 -24 0
-62 -49 0
24 49 62 0
-63 50 0
-63 35 0
-50 -35 63 0
-64 63 0
-64 17 0
-63 -17 64 0
62 -64 -65 0
-62 64 -65 0
62 64 65 0
-62 -64 65 0
61 65 -66 0
-61 -65 -66 0
61 -65 66 0
-61 65 66 0
-45 66 -67 0
45 -66 -67 0
-45 -66 67 0
45 66 67 0
68 47 0
68 4 0
-47 -4 -68 0
46 -63 -69 0
-46 63 -69 0
46 63 69 0
-46 -63 69 0
-70 10 0
-70 -7 0
-10 7 70 0
-71 69 0
-71 -70 0
-69 70 71 0
-71 33 -72 0
71 -33 -72 0
-71 -33 72 0
71 33 72 0
-72 -53 -73 0
72 53 -73 0
-72 53 73 0
72 -53 73 0
-74 39 0
-74 18 0
-39 -18 74 0
-75 -4 0
-75 -74 0
4 74 75 0
-73 75 -76 0
73 -75 -76 0
-73 -75 76 0
73 75 76 0
-68 76 -77 0
68 -76 -77 0
-68 -76 77 0
68 76 77 0
-7 9 -78 0
7 -9 -78 0
-7 -9 78 0
7 9 78 0
-14 78 -79 0
14 -78 -79 0
-14 -78 79 0
14 78 79 0
80 27 0
80 -79 0
-27 79 -80 0
50 -81 -82 0
-50 81 -82 0
50 81 82 0
-50 -81 82 0
-83 -40 0
-83 -49 0
40 49 83 0
83 -72 -84 0
-83 72 -84 0
83 72 84 0
-83 -72 84 0
-29 25 -85 0
29 -25 -85 0
-29 -25 85 0
29 25 85 0
-84 -85 -86 0
84 85 -86 0
-84 85 86 0
84 -85 86 0
82 86 -87 0
-82 -86 -87 0
82 -86 87 0
-82 86 87 0
-88 2 0
-88 70 0
-2 -70 88 0
89 87 0
89 88 0
-87 -88 -89 0
-90 -80 0
-90 89 0
80 -89 90 0
-91 -32 0
-91 13 0
32 -13 91 0
90 -91 -92 0
-90 91 -92 0
90 91 92 0
-90 -91 92 0
-93 36 0
-93 -17 0
-36 17 93 0
-70 -32 -94 0
70 32 -94 0
-70 32 94 0
70 -32 94 0
95 94 0
95 -17 0
-94 17 -95 0
96 93 0
96 -95 0
-93 95 -96 0
5 -74 -97 0
-5 74 -97 0
5 74 97 0
-5 -74 97 0
96 -97 -98 0
-96 97 -98 0
96 97 98 0
-96 -97 98 0
-99 -5 0
-99 27 0
5 -27 99 0
100 -99 0
100 -81 0
99 81 -100 0
-101 58 0
-101 100 0
-58 -100 101 0
-102 32 0
-102 -7 0
-32 7 102 0
103 -101 0
103 102 0
101 -102 -103 0
98 -103 -104 0
-98 103 -104 0
98 103 104 0
-98 -103 104 0
105 92 0
105 -104 0
-92 104 -105 0
-106 77 0
-106 105 0
-77 -105 106 0
-107 67 0
-107 106 0
-67 -106 107 0
-38 9 0
-9 45 13 0
11 33 15 -12 22 0
-97 -46 56 -101 -10 0
99 -75 -52 -89 0
-7 24 26 72 0
-83 -33 -87 -60 0
69 25 0
83 23 -33 -59 0
11 -19 74 69 0
-78 52 -4 0
-30 6 1 0
-81 -86 -103 -106 -56 0
-36 47 -95 27 96 0
69 -83 60 103 23 94 0
-54 -37 76 -98 46 0
77 2 -52 0
16 55 -22 -33 -85 0
10 -81 14 57 0
-38 -2 0
-10 66 -80 51 -104 0
48 89 -55 -20 -76 0
48 -62 0
-107 -93 -45 74 -41 0
9 -79 -104 0
-32 79 -94 0
100 -2 47 -18 0
-26 30 81 0
81 -82 -3 0
17 31 -66 0
9 -52 7 0
107 -28 103 0
65 19 -57 0
2 3 0
-14 101 -99 0
17 -71 -47 -102 64 -32 0
34 -87 56 -58 0
59 -12 -96 31 -80 28 0
24 62 -74 58 -94 1 0
9 -15 -67 4 71 -99 0
37 -78 -11 -26 0
7 40 84 -36 -72 94 0
5 -101 0
-3 -94 0
-95 -63 94 0
47 45 -89 6 0
107 0
